p cnf 241 1187
148 150 152 158 0
115 117 132 157 0
88 112 128 139 168 195 0
161 172 197 199 0
121 145 181 186 187 0
164 180 189 190 192 0
107 130 143 183 0
105 111 125 155 240 0
122 135 177 0
173 206 230 0
92 94 101 211 0
89 188 216 0
129 165 0
87 97 104 119 0
106 108 0
82 118 193 0
98 127 160 162 196 0
144 198 200 0
184 203 237 0
175 204 207 209 0
93 103 212 0
90 213 214 217 0
218 219 222 0
84 134 194 0
113 141 224 0
166 226 0
124 136 227 0
170 176 0
210 229 0
91 232 233 0
153 159 234 0
169 235 0
99 201 236 0
182 202 238 0
110 126 138 147 228 241 0
171 174 178 205 0
208 231 0
100 102 0
81 215 0
77 79 80 133 0
73 74 75 86 96 225 0
68 69 71 72 0
65 66 0
62 64 0
60 61 0
-117 -158 0
-158 -168 0
-59 -158 0
-155 -158 0
-117 -168 0
-59 -117 0
-117 -155 0
-59 -168 0
-155 -168 0
-59 -155 0
-135 -206 0
-135 -211 0
-58 -135 0
-104 -135 0
-206 -211 0
-58 -206 0
-104 -206 0
-58 -211 0
-104 -211 0
-58 -104 0
-85 -166 0
-70 -166 0
-57 -166 0
-166 -210 0
-70 -85 0
-57 -85 0
-85 -210 0
-57 -70 0
-70 -210 0
-57 -210 0
-56 -202 0
-56 -147 0
-56 -102 0
-54 -56 0
-147 -202 0
-102 -202 0
-54 -202 0
-102 -147 0
-54 -147 0
-54 -102 0
-133 -223 0
-133 -225 0
-64 -133 0
-123 -133 0
-223 -225 0
-64 -223 0
-123 -223 0
-64 -225 0
-123 -225 0
-64 -123 0
-135 -158 0
-158 -166 0
-56 -158 0
-133 -158 0
-135 -166 0
-56 -135 0
-133 -135 0
-56 -166 0
-133 -166 0
-56 -133 0
-117 -206 0
-85 -117 0
-117 -202 0
-117 -223 0
-85 -206 0
-202 -206 0
-206 -223 0
-85 -202 0
-85 -223 0
-202 -223 0
-168 -211 0
-70 -168 0
-147 -168 0
-168 -225 0
-70 -211 0
-147 -211 0
-211 -225 0
-70 -147 0
-70 -225 0
-147 -225 0
-58 -59 0
-57 -59 0
-59 -102 0
-59 -64 0
-57 -58 0
-58 -102 0
-58 -64 0
-57 -102 0
-57 -64 0
-64 -102 0
-104 -155 0
-155 -210 0
-54 -155 0
-123 -155 0
-104 -210 0
-54 -104 0
-104 -123 0
-54 -210 0
-123 -210 0
-54 -123 0
-132 -152 0
-152 -181 0
-52 -152 0
-152 -189 0
-132 -181 0
-52 -132 0
-132 -189 0
-52 -181 0
-181 -189 0
-52 -189 0
-122 -173 0
-51 -122 0
-50 -122 0
-49 -122 0
-51 -173 0
-50 -173 0
-49 -173 0
-50 -51 0
-49 -51 0
-49 -50 0
-48 -106 0
-48 -127 0
-48 -198 0
-48 -120 0
-106 -127 0
-106 -198 0
-106 -120 0
-127 -198 0
-120 -127 0
-120 -198 0
-142 -239 0
-142 -213 0
-142 -218 0
-47 -142 0
-213 -239 0
-218 -239 0
-47 -239 0
-213 -218 0
-47 -213 0
-47 -218 0
-45 -232 0
-116 -232 0
-169 -232 0
-99 -232 0
-45 -116 0
-45 -169 0
-45 -99 0
-116 -169 0
-99 -116 0
-99 -169 0
-122 -152 0
-48 -152 0
-142 -152 0
-152 -232 0
-48 -122 0
-122 -142 0
-122 -232 0
-48 -142 0
-48 -232 0
-142 -232 0
-132 -173 0
-106 -132 0
-132 -239 0
-45 -132 0
-106 -173 0
-173 -239 0
-45 -173 0
-106 -239 0
-45 -106 0
-45 -239 0
-51 -181 0
-127 -181 0
-181 -213 0
-116 -181 0
-51 -127 0
-51 -213 0
-51 -116 0
-127 -213 0
-116 -127 0
-116 -213 0
-50 -52 0
-52 -198 0
-52 -218 0
-52 -169 0
-50 -198 0
-50 -218 0
-50 -169 0
-198 -218 0
-169 -198 0
-169 -218 0
-49 -189 0
-120 -189 0
-47 -189 0
-99 -189 0
-49 -120 0
-47 -49 0
-49 -99 0
-47 -120 0
-99 -120 0
-47 -99 0
-112 -161 0
-112 -145 0
-44 -112 0
-112 -190 0
-145 -161 0
-44 -161 0
-161 -190 0
-44 -145 0
-145 -190 0
-44 -190 0
-101 -216 0
-101 -221 0
-42 -101 0
-40 -101 0
-216 -221 0
-42 -216 0
-40 -216 0
-42 -221 0
-40 -221 0
-40 -42 0
-39 -82 0
-82 -196 0
-82 -200 0
-38 -82 0
-39 -196 0
-39 -200 0
-38 -39 0
-196 -200 0
-38 -196 0
-38 -200 0
-36 -37 0
-35 -37 0
-34 -37 0
-37 -227 0
-35 -36 0
-34 -36 0
-36 -227 0
-34 -35 0
-35 -227 0
-34 -227 0
-151 -234 0
-131 -234 0
-234 -235 0
-234 -236 0
-131 -151 0
-151 -235 0
-151 -236 0
-131 -235 0
-131 -236 0
-235 -236 0
-101 -112 0
-82 -112 0
-37 -112 0
-112 -234 0
-82 -101 0
-37 -101 0
-101 -234 0
-37 -82 0
-82 -234 0
-37 -234 0
-161 -216 0
-39 -161 0
-36 -161 0
-151 -161 0
-39 -216 0
-36 -216 0
-151 -216 0
-36 -39 0
-39 -151 0
-36 -151 0
-145 -221 0
-145 -196 0
-35 -145 0
-131 -145 0
-196 -221 0
-35 -221 0
-131 -221 0
-35 -196 0
-131 -196 0
-35 -131 0
-42 -44 0
-44 -200 0
-34 -44 0
-44 -235 0
-42 -200 0
-34 -42 0
-42 -235 0
-34 -200 0
-200 -235 0
-34 -235 0
-40 -190 0
-38 -190 0
-190 -227 0
-190 -236 0
-38 -40 0
-40 -227 0
-40 -236 0
-38 -227 0
-38 -236 0
-227 -236 0
-88 -115 0
-33 -115 0
-115 -192 0
-115 -183 0
-33 -88 0
-88 -192 0
-88 -183 0
-33 -192 0
-33 -183 0
-183 -192 0
-109 -175 0
-109 -219 0
-31 -109 0
-84 -109 0
-175 -219 0
-31 -175 0
-84 -175 0
-31 -219 0
-84 -219 0
-31 -84 0
-67 -95 0
-29 -95 0
-95 -136 0
-95 -170 0
-29 -67 0
-67 -136 0
-67 -170 0
-29 -136 0
-29 -170 0
-136 -170 0
-228 -238 0
-100 -238 0
-215 -238 0
-220 -238 0
-100 -228 0
-215 -228 0
-220 -228 0
-100 -215 0
-100 -220 0
-215 -220 0
-75 -140 0
-62 -140 0
-61 -140 0
-28 -140 0
-62 -75 0
-61 -75 0
-28 -75 0
-61 -62 0
-28 -62 0
-28 -61 0
-109 -115 0
-95 -115 0
-115 -238 0
-115 -140 0
-95 -109 0
-109 -238 0
-109 -140 0
-95 -238 0
-95 -140 0
-140 -238 0
-88 -175 0
-67 -88 0
-88 -228 0
-75 -88 0
-67 -175 0
-175 -228 0
-75 -175 0
-67 -228 0
-67 -75 0
-75 -228 0
-33 -219 0
-29 -33 0
-33 -100 0
-33 -62 0
-29 -219 0
-100 -219 0
-62 -219 0
-29 -100 0
-29 -62 0
-62 -100 0
-31 -192 0
-136 -192 0
-192 -215 0
-61 -192 0
-31 -136 0
-31 -215 0
-31 -61 0
-136 -215 0
-61 -136 0
-61 -215 0
-84 -183 0
-170 -183 0
-183 -220 0
-28 -183 0
-84 -170 0
-84 -220 0
-28 -84 0
-170 -220 0
-28 -170 0
-28 -220 0
-150 -157 0
-139 -150 0
-150 -172 0
-150 -186 0
-150 -164 0
-107 -150 0
-125 -150 0
-139 -157 0
-157 -172 0
-157 -186 0
-157 -164 0
-107 -157 0
-125 -157 0
-139 -172 0
-139 -186 0
-139 -164 0
-107 -139 0
-125 -139 0
-172 -186 0
-164 -172 0
-107 -172 0
-125 -172 0
-164 -186 0
-107 -186 0
-125 -186 0
-107 -164 0
-125 -164 0
-107 -125 0
-177 -230 0
-94 -177 0
-89 -177 0
-27 -177 0
-78 -177 0
-165 -177 0
-87 -177 0
-94 -230 0
-89 -230 0
-27 -230 0
-78 -230 0
-165 -230 0
-87 -230 0
-89 -94 0
-27 -94 0
-78 -94 0
-94 -165 0
-87 -94 0
-27 -89 0
-78 -89 0
-89 -165 0
-87 -89 0
-27 -78 0
-27 -165 0
-27 -87 0
-78 -165 0
-78 -87 0
-87 -165 0
-25 -108 0
-25 -193 0
-24 -25 0
-25 -162 0
-23 -25 0
-25 -55 0
-25 -203 0
-108 -193 0
-24 -108 0
-108 -162 0
-23 -108 0
-55 -108 0
-108 -203 0
-24 -193 0
-162 -193 0
-23 -193 0
-55 -193 0
-193 -203 0
-24 -162 0
-23 -24 0
-24 -55 0
-24 -203 0
-23 -162 0
-55 -162 0
-162 -203 0
-23 -55 0
-23 -203 0
-55 -203 0
-22 -146 0
-146 -204 0
-103 -146 0
-90 -146 0
-53 -146 0
-134 -146 0
-146 -224 0
-22 -204 0
-22 -103 0
-22 -90 0
-22 -53 0
-22 -134 0
-22 -224 0
-103 -204 0
-90 -204 0
-53 -204 0
-134 -204 0
-204 -224 0
-90 -103 0
-53 -103 0
-103 -134 0
-103 -224 0
-53 -90 0
-90 -134 0
-90 -224 0
-53 -134 0
-53 -224 0
-134 -224 0
-21 -226 0
-20 -226 0
-63 -226 0
-19 -226 0
-124 -226 0
-176 -226 0
-226 -229 0
-20 -21 0
-21 -63 0
-19 -21 0
-21 -124 0
-21 -176 0
-21 -229 0
-20 -63 0
-19 -20 0
-20 -124 0
-20 -176 0
-20 -229 0
-19 -63 0
-63 -124 0
-63 -176 0
-63 -229 0
-19 -124 0
-19 -176 0
-19 -229 0
-124 -176 0
-124 -229 0
-176 -229 0
-18 -233 0
-159 -233 0
-17 -233 0
-114 -233 0
-201 -233 0
-16 -233 0
-32 -233 0
-18 -159 0
-17 -18 0
-18 -114 0
-18 -201 0
-16 -18 0
-18 -32 0
-17 -159 0
-114 -159 0
-159 -201 0
-16 -159 0
-32 -159 0
-17 -114 0
-17 -201 0
-16 -17 0
-17 -32 0
-114 -201 0
-16 -114 0
-32 -114 0
-16 -201 0
-32 -201 0
-16 -32 0
-182 -191 0
-138 -191 0
-171 -191 0
-191 -208 0
-81 -191 0
-15 -191 0
-14 -191 0
-138 -182 0
-171 -182 0
-182 -208 0
-81 -182 0
-15 -182 0
-14 -182 0
-138 -171 0
-138 -208 0
-81 -138 0
-15 -138 0
-14 -138 0
-171 -208 0
-81 -171 0
-15 -171 0
-14 -171 0
-81 -208 0
-15 -208 0
-14 -208 0
-15 -81 0
-14 -81 0
-14 -15 0
-13 -80 0
-74 -80 0
-72 -80 0
-66 -80 0
-60 -80 0
-12 -80 0
-11 -80 0
-13 -74 0
-13 -72 0
-13 -66 0
-13 -60 0
-12 -13 0
-11 -13 0
-72 -74 0
-66 -74 0
-60 -74 0
-12 -74 0
-11 -74 0
-66 -72 0
-60 -72 0
-12 -72 0
-11 -72 0
-60 -66 0
-12 -66 0
-11 -66 0
-12 -60 0
-11 -60 0
-11 -12 0
-150 -177 0
-25 -150 0
-146 -150 0
-150 -226 0
-150 -233 0
-150 -191 0
-80 -150 0
-25 -177 0
-146 -177 0
-177 -226 0
-177 -233 0
-177 -191 0
-80 -177 0
-25 -146 0
-25 -226 0
-25 -233 0
-25 -191 0
-25 -80 0
-146 -226 0
-146 -233 0
-146 -191 0
-80 -146 0
-226 -233 0
-191 -226 0
-80 -226 0
-191 -233 0
-80 -233 0
-80 -191 0
-157 -230 0
-108 -157 0
-22 -157 0
-21 -157 0
-18 -157 0
-157 -182 0
-13 -157 0
-108 -230 0
-22 -230 0
-21 -230 0
-18 -230 0
-182 -230 0
-13 -230 0
-22 -108 0
-21 -108 0
-18 -108 0
-108 -182 0
-13 -108 0
-21 -22 0
-18 -22 0
-22 -182 0
-13 -22 0
-18 -21 0
-21 -182 0
-13 -21 0
-18 -182 0
-13 -18 0
-13 -182 0
-94 -139 0
-139 -193 0
-139 -204 0
-20 -139 0
-139 -159 0
-138 -139 0
-74 -139 0
-94 -193 0
-94 -204 0
-20 -94 0
-94 -159 0
-94 -138 0
-74 -94 0
-193 -204 0
-20 -193 0
-159 -193 0
-138 -193 0
-74 -193 0
-20 -204 0
-159 -204 0
-138 -204 0
-74 -204 0
-20 -159 0
-20 -138 0
-20 -74 0
-138 -159 0
-74 -159 0
-74 -138 0
-89 -172 0
-24 -172 0
-103 -172 0
-63 -172 0
-17 -172 0
-171 -172 0
-72 -172 0
-24 -89 0
-89 -103 0
-63 -89 0
-17 -89 0
-89 -171 0
-72 -89 0
-24 -103 0
-24 -63 0
-17 -24 0
-24 -171 0
-24 -72 0
-63 -103 0
-17 -103 0
-103 -171 0
-72 -103 0
-17 -63 0
-63 -171 0
-63 -72 0
-17 -171 0
-17 -72 0
-72 -171 0
-27 -186 0
-162 -186 0
-90 -186 0
-19 -186 0
-114 -186 0
-186 -208 0
-66 -186 0
-27 -162 0
-27 -90 0
-19 -27 0
-27 -114 0
-27 -208 0
-27 -66 0
-90 -162 0
-19 -162 0
-114 -162 0
-162 -208 0
-66 -162 0
-19 -90 0
-90 -114 0
-90 -208 0
-66 -90 0
-19 -114 0
-19 -208 0
-19 -66 0
-114 -208 0
-66 -114 0
-66 -208 0
-78 -164 0
-23 -164 0
-53 -164 0
-124 -164 0
-164 -201 0
-81 -164 0
-60 -164 0
-23 -78 0
-53 -78 0
-78 -124 0
-78 -201 0
-78 -81 0
-60 -78 0
-23 -53 0
-23 -124 0
-23 -201 0
-23 -81 0
-23 -60 0
-53 -124 0
-53 -201 0
-53 -81 0
-53 -60 0
-124 -201 0
-81 -124 0
-60 -124 0
-81 -201 0
-60 -201 0
-60 -81 0
-107 -165 0
-55 -107 0
-107 -134 0
-107 -176 0
-16 -107 0
-15 -107 0
-12 -107 0
-55 -165 0
-134 -165 0
-165 -176 0
-16 -165 0
-15 -165 0
-12 -165 0
-55 -134 0
-55 -176 0
-16 -55 0
-15 -55 0
-12 -55 0
-134 -176 0
-16 -134 0
-15 -134 0
-12 -134 0
-16 -176 0
-15 -176 0
-12 -176 0
-15 -16 0
-12 -16 0
-12 -15 0
-87 -125 0
-125 -203 0
-125 -224 0
-125 -229 0
-32 -125 0
-14 -125 0
-11 -125 0
-87 -203 0
-87 -224 0
-87 -229 0
-32 -87 0
-14 -87 0
-11 -87 0
-203 -224 0
-203 -229 0
-32 -203 0
-14 -203 0
-11 -203 0
-224 -229 0
-32 -224 0
-14 -224 0
-11 -224 0
-32 -229 0
-14 -229 0
-11 -229 0
-14 -32 0
-11 -32 0
-11 -14 0
-128 -148 0
-148 -197 0
-121 -148 0
-143 -148 0
-148 -240 0
-128 -197 0
-121 -128 0
-128 -143 0
-128 -240 0
-121 -197 0
-143 -197 0
-197 -240 0
-121 -143 0
-121 -240 0
-143 -240 0
-10 -118 0
-10 -167 0
-10 -98 0
-9 -10 0
-10 -184 0
-118 -167 0
-98 -118 0
-9 -118 0
-118 -184 0
-98 -167 0
-9 -167 0
-167 -184 0
-9 -98 0
-98 -184 0
-9 -184 0
-154 -207 0
-154 -212 0
-154 -214 0
-154 -194 0
-113 -154 0
-207 -212 0
-207 -214 0
-194 -207 0
-113 -207 0
-212 -214 0
-194 -212 0
-113 -212 0
-194 -214 0
-113 -214 0
-113 -194 0
-91 -153 0
-91 -149 0
-91 -156 0
-91 -185 0
-8 -91 0
-149 -153 0
-153 -156 0
-153 -185 0
-8 -153 0
-149 -156 0
-149 -185 0
-8 -149 0
-156 -185 0
-8 -156 0
-8 -185 0
-126 -163 0
-163 -178 0
-163 -231 0
-26 -163 0
-7 -163 0
-126 -178 0
-126 -231 0
-26 -126 0
-7 -126 0
-178 -231 0
-26 -178 0
-7 -178 0
-26 -231 0
-7 -231 0
-7 -26 0
-79 -86 0
-71 -79 0
-65 -79 0
-6 -79 0
-5 -79 0
-71 -86 0
-65 -86 0
-6 -86 0
-5 -86 0
-65 -71 0
-6 -71 0
-5 -71 0
-6 -65 0
-5 -65 0
-5 -6 0
-10 -148 0
-148 -154 0
-91 -148 0
-148 -163 0
-79 -148 0
-10 -154 0
-10 -91 0
-10 -163 0
-10 -79 0
-91 -154 0
-154 -163 0
-79 -154 0
-91 -163 0
-79 -91 0
-79 -163 0
-118 -128 0
-128 -207 0
-128 -153 0
-126 -128 0
-86 -128 0
-118 -207 0
-118 -153 0
-118 -126 0
-86 -118 0
-153 -207 0
-126 -207 0
-86 -207 0
-126 -153 0
-86 -153 0
-86 -126 0
-167 -197 0
-197 -212 0
-149 -197 0
-178 -197 0
-71 -197 0
-167 -212 0
-149 -167 0
-167 -178 0
-71 -167 0
-149 -212 0
-178 -212 0
-71 -212 0
-149 -178 0
-71 -149 0
-71 -178 0
-98 -121 0
-121 -214 0
-121 -156 0
-121 -231 0
-65 -121 0
-98 -214 0
-98 -156 0
-98 -231 0
-65 -98 0
-156 -214 0
-214 -231 0
-65 -214 0
-156 -231 0
-65 -156 0
-65 -231 0
-9 -143 0
-143 -194 0
-143 -185 0
-26 -143 0
-6 -143 0
-9 -194 0
-9 -185 0
-9 -26 0
-6 -9 0
-185 -194 0
-26 -194 0
-6 -194 0
-26 -185 0
-6 -185 0
-6 -26 0
-184 -240 0
-113 -240 0
-8 -240 0
-7 -240 0
-5 -240 0
-113 -184 0
-8 -184 0
-7 -184 0
-5 -184 0
-8 -113 0
-7 -113 0
-5 -113 0
-7 -8 0
-5 -8 0
-5 -7 0
-195 -199 0
-130 -195 0
-105 -195 0
-130 -199 0
-105 -199 0
-105 -130 0
-92 -188 0
-92 -129 0
-92 -119 0
-129 -188 0
-119 -188 0
-119 -129 0
-205 -241 0
-46 -241 0
-4 -241 0
-46 -205 0
-4 -205 0
-4 -46 0
-69 -73 0
-3 -73 0
-2 -73 0
-3 -69 0
-2 -69 0
-2 -3 0
-92 -195 0
-195 -241 0
-73 -195 0
-92 -241 0
-73 -92 0
-73 -241 0
-188 -199 0
-199 -205 0
-69 -199 0
-188 -205 0
-69 -188 0
-69 -205 0
-129 -130 0
-46 -130 0
-3 -130 0
-46 -129 0
-3 -129 0
-3 -46 0
-105 -119 0
-4 -105 0
-2 -105 0
-4 -119 0
-2 -119 0
-2 -4 0
-1 -187 0
-180 -187 0
-111 -187 0
-1 -180 0
-1 -111 0
-111 -180 0
-30 -83 0
-30 -76 0
-30 -97 0
-76 -83 0
-83 -97 0
-76 -97 0
-144 -160 0
-43 -160 0
-160 -237 0
-43 -144 0
-144 -237 0
-43 -237 0
-217 -222 0
-41 -217 0
-141 -217 0
-41 -222 0
-141 -222 0
-41 -141 0
-30 -187 0
-160 -187 0
-187 -217 0
-30 -160 0
-30 -217 0
-160 -217 0
-1 -83 0
-1 -144 0
-1 -222 0
-83 -144 0
-83 -222 0
-144 -222 0
-76 -180 0
-43 -180 0
-41 -180 0
-43 -76 0
-41 -76 0
-41 -43 0
-97 -111 0
-111 -237 0
-111 -141 0
-97 -237 0
-97 -141 0
-141 -237 0
-137 -209 0
-93 -137 0
-93 -209 0
-110 -179 0
-174 -179 0
-110 -174 0
-77 -96 0
-68 -77 0
-68 -96 0
-137 -179 0
-77 -137 0
-77 -179 0
-110 -209 0
-96 -209 0
-96 -110 0
-93 -174 0
-68 -93 0
-68 -174 0
